n_vertices = 400;
n_edges = 606;
edges = [|1,19
|2,20
|3,4
|4,5
|4,22
|5,6
|5,23
|6,7
|6,24
|7,8
|7,25
|8,9
|9,10
|9,26
|10,11
|10,27
|11,12
|11,28
|12,13
|12,29
|13,14
|13,30
|14,15
|14,31
|15,16
|15,32
|16,17
|16,33
|17,18
|17,34
|18,35
|19,36
|20,21
|20,37
|21,38
|22,23
|22,40
|23,24
|23,41
|24,25
|24,42
|25,43
|26,27
|26,45
|27,28
|28,29
|28,46
|29,30
|29,47
|30,31
|30,48
|31,32
|31,49
|32,33
|32,50
|33,34
|33,51
|34,35
|34,52
|35,53
|36,54
|37,38
|38,39
|38,56
|39,40
|39,57
|40,41
|40,58
|41,42
|42,43
|43,44
|43,59
|44,45
|44,60
|45,61
|46,47
|46,63
|47,48
|47,64
|48,49
|49,50
|49,65
|50,51
|50,66
|51,52
|52,53
|54,55
|54,67
|55,68
|56,57
|57,58
|57,70
|58,71
|59,60
|59,73
|60,61
|61,62
|61,74
|62,63
|62,75
|63,64
|63,76
|65,66
|66,78
|67,68
|67,80
|68,69
|68,81
|69,82
|70,71
|70,83
|71,84
|72,73
|72,86
|73,87
|74,75
|74,88
|75,76
|76,89
|77,91
|78,93
|79,96
|80,81
|81,82
|82,97
|83,84
|83,98
|84,85
|84,99
|85,86
|85,100
|86,87
|86,101
|87,102
|88,104
|89,90
|90,91
|90,106
|91,92
|91,107
|92,93
|92,108
|93,94
|93,109
|94,95
|94,110
|95,96
|96,111
|97,113
|98,99
|98,115
|99,100
|100,101
|101,102
|101,116
|102,103
|102,117
|103,104
|104,105
|104,118
|105,119
|106,107
|106,121
|107,108
|108,109
|108,122
|109,110
|109,123
|110,124
|111,126
|113,114
|113,128
|114,115
|114,129
|115,130
|116,117
|116,132
|117,133
|118,119
|118,134
|119,120
|119,135
|120,121
|120,136
|122,123
|122,138
|123,124
|123,139
|124,125
|124,140
|125,126
|125,141
|127,128
|127,143
|128,129
|129,130
|130,131
|131,144
|132,133
|132,146
|133,147
|134,135
|134,149
|135,136
|135,150
|136,151
|137,138
|137,153
|138,139
|139,140
|140,141
|140,154
|141,155
|142,143
|142,157
|143,158
|144,145
|144,161
|145,146
|146,147
|146,162
|147,148
|147,163
|148,149
|148,164
|149,150
|150,151
|150,165
|151,152
|151,166
|152,153
|152,167
|153,168
|154,155
|154,170
|155,156
|155,171
|156,172
|157,158
|157,173
|158,159
|158,174
|159,175
|160,161
|160,177
|162,163
|162,179
|163,164
|165,166
|165,181
|166,167
|166,182
|167,168
|167,183
|168,169
|168,184
|169,185
|170,171
|170,186
|171,172
|173,174
|173,187
|174,175
|175,176
|175,188
|176,177
|176,189
|177,190
|178,179
|178,191
|179,192
|180,181
|181,182
|181,195
|182,183
|182,196
|183,184
|183,197
|184,185
|185,198
|186,199
|188,189
|188,203
|189,190
|189,204
|190,205
|191,192
|191,207
|192,193
|192,208
|193,194
|193,209
|194,210
|195,196
|195,212
|196,197
|198,214
|199,200
|200,201
|200,216
|201,217
|202,203
|202,219
|203,204
|203,220
|204,205
|204,221
|205,206
|205,222
|206,207
|206,223
|207,208
|208,209
|208,224
|209,210
|209,225
|210,211
|210,226
|211,212
|211,227
|212,228
|213,214
|213,230
|214,215
|215,231
|216,217
|216,233
|217,234
|218,219
|219,220
|220,221
|220,235
|221,222
|221,236
|222,223
|222,237
|223,238
|224,225
|224,240
|225,226
|225,241
|226,227
|227,228
|227,242
|228,243
|229,230
|231,232
|231,246
|232,233
|233,234
|233,247
|234,248
|235,236
|236,237
|237,238
|238,239
|239,240
|239,251
|240,241
|240,252
|242,243
|242,254
|243,244
|243,255
|244,256
|245,246
|245,259
|246,260
|247,248
|247,261
|249,250
|249,262
|251,252
|251,266
|252,267
|253,254
|253,269
|254,255
|254,270
|255,256
|255,271
|256,257
|256,272
|257,258
|257,273
|258,259
|258,274
|259,260
|259,275
|261,277
|262,279
|263,264
|263,281
|264,282
|265,266
|265,283
|266,267
|266,284
|267,268
|267,285
|268,269
|268,286
|269,270
|269,287
|270,271
|270,288
|271,272
|271,289
|272,273
|273,274
|273,290
|274,275
|275,291
|276,277
|276,293
|277,278
|277,294
|278,295
|279,280
|279,296
|280,281
|280,297
|281,282
|282,298
|283,284
|283,300
|284,285
|284,301
|285,286
|286,287
|286,302
|287,288
|287,303
|288,289
|288,304
|289,305
|291,292
|291,308
|292,293
|292,309
|293,294
|293,310
|294,295
|294,311
|295,312
|296,297
|296,313
|297,314
|298,299
|298,315
|299,300
|299,316
|300,301
|300,317
|302,303
|302,319
|303,304
|303,320
|304,305
|304,321
|305,306
|305,322
|306,323
|307,308
|307,325
|308,309
|308,326
|309,310
|309,327
|310,311
|310,328
|311,312
|311,329
|312,330
|313,314
|313,331
|314,332
|315,316
|315,334
|316,317
|316,335
|317,336
|318,319
|319,320
|319,338
|320,321
|320,339
|321,322
|321,340
|322,323
|322,341
|323,324
|323,342
|324,325
|324,343
|325,326
|325,344
|326,327
|326,345
|327,328
|327,346
|328,329
|328,347
|329,330
|330,348
|331,332
|331,349
|332,333
|332,350
|333,334
|333,351
|334,335
|334,352
|335,336
|335,353
|336,337
|336,354
|337,355
|338,339
|338,357
|339,340
|339,358
|340,341
|341,342
|341,359
|342,343
|342,360
|343,344
|344,345
|345,346
|345,361
|346,347
|346,362
|348,364
|349,350
|349,365
|350,351
|350,366
|351,352
|351,367
|352,353
|352,368
|353,354
|353,369
|354,355
|355,356
|355,370
|356,357
|356,371
|357,358
|358,372
|359,360
|359,373
|360,374
|361,362
|361,377
|362,378
|363,364
|363,380
|364,381
|365,366
|365,382
|366,367
|367,368
|367,383
|368,369
|368,384
|369,385
|370,371
|370,387
|371,388
|372,390
|373,374
|373,392
|374,375
|374,393
|375,376
|375,394
|376,377
|376,395
|377,378
|377,396
|378,379
|378,397
|379,380
|379,398
|380,381
|380,399
|381,400
|383,384
|384,385
|385,386
|386,387
|387,388
|388,389
|389,390
|390,391
|391,392
|392,393
|393,394
|394,395
|395,396
|396,397
|397,398
|398,399
|399,400
|];
adj = [|19,0,0,0
|20,0,0,0
|4,0,0,0
|3,5,22,0
|4,6,23,0
|5,7,24,0
|6,8,25,0
|7,9,0,0
|8,10,26,0
|9,11,27,0
|10,12,28,0
|11,13,29,0
|12,14,30,0
|13,15,31,0
|14,16,32,0
|15,17,33,0
|16,18,34,0
|17,35,0,0
|1,36,0,0
|2,21,37,0
|20,38,0,0
|4,23,40,0
|5,22,24,41
|6,23,25,42
|7,24,43,0
|9,27,45,0
|10,26,28,0
|11,27,29,46
|12,28,30,47
|13,29,31,48
|14,30,32,49
|15,31,33,50
|16,32,34,51
|17,33,35,52
|18,34,53,0
|19,54,0,0
|20,38,0,0
|21,37,39,56
|38,40,57,0
|22,39,41,58
|23,40,42,0
|24,41,43,0
|25,42,44,59
|43,45,60,0
|26,44,61,0
|28,47,63,0
|29,46,48,64
|30,47,49,0
|31,48,50,65
|32,49,51,66
|33,50,52,0
|34,51,53,0
|35,52,0,0
|36,55,67,0
|54,68,0,0
|38,57,0,0
|39,56,58,70
|40,57,71,0
|43,60,73,0
|44,59,61,0
|45,60,62,74
|61,63,75,0
|46,62,64,76
|47,63,0,0
|49,66,0,0
|50,65,78,0
|54,68,80,0
|55,67,69,81
|68,82,0,0
|57,71,83,0
|58,70,84,0
|73,86,0,0
|59,72,87,0
|61,75,88,0
|62,74,76,0
|63,75,89,0
|91,0,0,0
|66,93,0,0
|96,0,0,0
|67,81,0,0
|68,80,82,0
|69,81,97,0
|70,84,98,0
|71,83,85,99
|84,86,100,0
|72,85,87,101
|73,86,102,0
|74,104,0,0
|76,90,0,0
|89,91,106,0
|77,90,92,107
|91,93,108,0
|78,92,94,109
|93,95,110,0
|94,96,0,0
|79,95,111,0
|82,113,0,0
|83,99,115,0
|84,98,100,0
|85,99,101,0
|86,100,102,116
|87,101,103,117
|102,104,0,0
|88,103,105,118
|104,119,0,0
|90,107,121,0
|91,106,108,0
|92,107,109,122
|93,108,110,123
|94,109,124,0
|96,126,0,0
|0,0,0,0
|97,114,128,0
|113,115,129,0
|98,114,130,0
|101,117,132,0
|102,116,133,0
|104,119,134,0
|105,118,120,135
|119,121,136,0
|106,120,0,0
|108,123,138,0
|109,122,124,139
|110,123,125,140
|124,126,141,0
|111,125,0,0
|128,143,0,0
|113,127,129,0
|114,128,130,0
|115,129,131,0
|130,144,0,0
|116,133,146,0
|117,132,147,0
|118,135,149,0
|119,134,136,150
|120,135,151,0
|138,153,0,0
|122,137,139,0
|123,138,140,0
|124,139,141,154
|125,140,155,0
|143,157,0,0
|127,142,158,0
|131,145,161,0
|144,146,0,0
|132,145,147,162
|133,146,148,163
|147,149,164,0
|134,148,150,0
|135,149,151,165
|136,150,152,166
|151,153,167,0
|137,152,168,0
|140,155,170,0
|141,154,156,171
|155,172,0,0
|142,158,173,0
|143,157,159,174
|158,175,0,0
|161,177,0,0
|144,160,0,0
|146,163,179,0
|147,162,164,0
|148,163,0,0
|150,166,181,0
|151,165,167,182
|152,166,168,183
|153,167,169,184
|168,185,0,0
|154,171,186,0
|155,170,172,0
|156,171,0,0
|157,174,187,0
|158,173,175,0
|159,174,176,188
|175,177,189,0
|160,176,190,0
|179,191,0,0
|162,178,192,0
|181,0,0,0
|165,180,182,195
|166,181,183,196
|167,182,184,197
|168,183,185,0
|169,184,198,0
|170,199,0,0
|173,0,0,0
|175,189,203,0
|176,188,190,204
|177,189,205,0
|178,192,207,0
|179,191,193,208
|192,194,209,0
|193,210,0,0
|181,196,212,0
|182,195,197,0
|183,196,0,0
|185,214,0,0
|186,200,0,0
|199,201,216,0
|200,217,0,0
|203,219,0,0
|188,202,204,220
|189,203,205,221
|190,204,206,222
|205,207,223,0
|191,206,208,0
|192,207,209,224
|193,208,210,225
|194,209,211,226
|210,212,227,0
|195,211,228,0
|214,230,0,0
|198,213,215,0
|214,231,0,0
|200,217,233,0
|201,216,234,0
|219,0,0,0
|202,218,220,0
|203,219,221,235
|204,220,222,236
|205,221,223,237
|206,222,238,0
|208,225,240,0
|209,224,226,241
|210,225,227,0
|211,226,228,242
|212,227,243,0
|230,0,0,0
|213,229,0,0
|215,232,246,0
|231,233,0,0
|216,232,234,247
|217,233,248,0
|220,236,0,0
|221,235,237,0
|222,236,238,0
|223,237,239,0
|238,240,251,0
|224,239,241,252
|225,240,0,0
|227,243,254,0
|228,242,244,255
|243,256,0,0
|246,259,0,0
|231,245,260,0
|233,248,261,0
|234,247,0,0
|250,262,0,0
|249,0,0,0
|239,252,266,0
|240,251,267,0
|254,269,0,0
|242,253,255,270
|243,254,256,271
|244,255,257,272
|256,258,273,0
|257,259,274,0
|245,258,260,275
|246,259,0,0
|247,277,0,0
|249,279,0,0
|264,281,0,0
|263,282,0,0
|266,283,0,0
|251,265,267,284
|252,266,268,285
|267,269,286,0
|253,268,270,287
|254,269,271,288
|255,270,272,289
|256,271,273,0
|257,272,274,290
|258,273,275,0
|259,274,291,0
|277,293,0,0
|261,276,278,294
|277,295,0,0
|262,280,296,0
|279,281,297,0
|263,280,282,0
|264,281,298,0
|265,284,300,0
|266,283,285,301
|267,284,286,0
|268,285,287,302
|269,286,288,303
|270,287,289,304
|271,288,305,0
|273,0,0,0
|275,292,308,0
|291,293,309,0
|276,292,294,310
|277,293,295,311
|278,294,312,0
|279,297,313,0
|280,296,314,0
|282,299,315,0
|298,300,316,0
|283,299,301,317
|284,300,0,0
|286,303,319,0
|287,302,304,320
|288,303,305,321
|289,304,306,322
|305,323,0,0
|308,325,0,0
|291,307,309,326
|292,308,310,327
|293,309,311,328
|294,310,312,329
|295,311,330,0
|296,314,331,0
|297,313,332,0
|298,316,334,0
|299,315,317,335
|300,316,336,0
|319,0,0,0
|302,318,320,338
|303,319,321,339
|304,320,322,340
|305,321,323,341
|306,322,324,342
|323,325,343,0
|307,324,326,344
|308,325,327,345
|309,326,328,346
|310,327,329,347
|311,328,330,0
|312,329,348,0
|313,332,349,0
|314,331,333,350
|332,334,351,0
|315,333,335,352
|316,334,336,353
|317,335,337,354
|336,355,0,0
|319,339,357,0
|320,338,340,358
|321,339,341,0
|322,340,342,359
|323,341,343,360
|324,342,344,0
|325,343,345,0
|326,344,346,361
|327,345,347,362
|328,346,0,0
|330,364,0,0
|331,350,365,0
|332,349,351,366
|333,350,352,367
|334,351,353,368
|335,352,354,369
|336,353,355,0
|337,354,356,370
|355,357,371,0
|338,356,358,0
|339,357,372,0
|341,360,373,0
|342,359,374,0
|345,362,377,0
|346,361,378,0
|364,380,0,0
|348,363,381,0
|349,366,382,0
|350,365,367,0
|351,366,368,383
|352,367,369,384
|353,368,385,0
|355,371,387,0
|356,370,388,0
|358,390,0,0
|359,374,392,0
|360,373,375,393
|374,376,394,0
|375,377,395,0
|361,376,378,396
|362,377,379,397
|378,380,398,0
|363,379,381,399
|364,380,400,0
|365,0,0,0
|367,384,0,0
|368,383,385,0
|369,384,386,0
|385,387,0,0
|370,386,388,0
|371,387,389,0
|388,390,0,0
|372,389,391,0
|390,392,0,0
|373,391,393,0
|374,392,394,0
|375,393,395,0
|376,394,396,0
|377,395,397,0
|378,396,398,0
|379,397,399,0
|380,398,400,0
|381,399,0,0
|];
max_adj = 4;
